c 49_4_checker.cnf
c
c field = 49
c formula set type = 4_checker
c
p cnf 5 50
90 
92 
94 
98 
-100 
91 
93 
95 
99 
-101 
92 
94 
98 
100 
-90 
93 
95 
99 
101 
-91 
92 
94 
98 
100 
-102 
93 
95 
99 
101 
-103 
94 
98 
100 
102 
-92 
95 
99 
101 
103 
-93 
94 
98 
100 
102 
-104 
95 
99 
101 
103 
-105 
98 
100 
102 
104 
-94 
99 
101 
103 
105 
-95 
98 
100 
102 
104 
-106 
99 
101 
103 
105 
-107 
6 
36 
66 
126 
-156 
7 
37 
67 
127 
-157 
36 
66 
126 
156 
-6 
37 
67 
127 
157 
-7 
36 
66 
126 
156 
-186 
37 
67 
127 
157 
-187 
66 
126 
156 
186 
-36 
67 
127 
157 
187 
-37 
66 
126 
156 
186 
-216 
67 
127 
157 
187 
-217 
126 
156 
186 
216 
-66 
127 
157 
187 
217 
-67 
126 
156 
186 
216 
-246 
127 
157 
187 
217 
-247 
0 
32 
64 
128 
-160 
1 
33 
65 
129 
-161 
32 
64 
128 
160 
-0 
33 
65 
129 
161 
-1 
32 
64 
128 
160 
-192 
33 
65 
129 
161 
-193 
64 
128 
160 
192 
-32 
65 
129 
161 
193 
-33 
64 
128 
160 
192 
-224 
65 
129 
161 
193 
-225 
128 
160 
192 
224 
-64 
129 
161 
193 
225 
-65 
128 
160 
192 
224 
-256 
129 
161 
193 
225 
-257 
12 
40 
68 
124 
-152 
13 
41 
69 
125 
-153 
40 
68 
124 
152 
-12 
41 
69 
125 
153 
-13 
40 
68 
124 
152 
-180 
41 
69 
125 
153 
-181 
68 
124 
152 
180 
-40 
69 
125 
153 
181 
-41 
